c FILE: i080-243

c SOURCE: From steinlib

c DESCRIPTION: Steinlib instance with 80 nodes and 632 edges.

p edge 80 632
e 1 5
e 1 9
e 1 11
e 1 15
e 1 18
e 1 21
e 1 22
e 1 24
e 1 27
e 1 33
e 1 39
e 1 46
e 1 51
e 1 58
e 1 60
e 1 62
e 1 66
e 1 67
e 1 70
e 1 77
e 1 78
e 2 7
e 2 10
e 2 15
e 2 18
e 2 29
e 2 38
e 2 39
e 2 49
e 2 52
e 2 66
e 2 70
e 2 74
e 2 75
e 2 79
e 2 80
e 3 9
e 3 11
e 3 28
e 3 31
e 3 32
e 3 40
e 3 48
e 3 60
e 3 62
e 3 75
e 4 14
e 4 15
e 4 18
e 4 23
e 4 25
e 4 26
e 4 33
e 4 37
e 4 45
e 4 47
e 4 52
e 4 54
e 4 59
e 4 66
e 4 70
e 4 71
e 4 73
e 4 79
e 5 7
e 5 17
e 5 24
e 5 26
e 5 28
e 5 29
e 5 36
e 5 39
e 5 42
e 5 48
e 5 50
e 5 51
e 5 53
e 5 55
e 5 56
e 5 62
e 5 66
e 5 74
e 5 75
e 5 79
e 6 11
e 6 16
e 6 18
e 6 31
e 6 42
e 6 56
e 6 70
e 6 79
e 7 10
e 7 11
e 7 20
e 7 24
e 7 28
e 7 31
e 7 37
e 7 38
e 7 53
e 7 58
e 7 60
e 7 64
e 7 65
e 7 72
e 7 74
e 7 77
e 8 37
e 8 42
e 8 45
e 8 48
e 8 51
e 8 52
e 8 58
e 8 61
e 8 62
e 8 65
e 8 66
e 8 73
e 8 74
e 8 76
e 9 11
e 9 12
e 9 13
e 9 14
e 9 21
e 9 27
e 9 29
e 9 33
e 9 34
e 9 35
e 9 36
e 9 38
e 9 46
e 9 50
e 9 51
e 9 63
e 9 72
e 9 74
e 9 75
e 9 76
e 10 22
e 10 30
e 10 31
e 10 34
e 10 38
e 10 40
e 10 42
e 10 44
e 10 51
e 10 59
e 10 70
e 10 74
e 11 15
e 11 17
e 11 20
e 11 24
e 11 27
e 11 36
e 11 43
e 11 48
e 11 59
e 11 60
e 11 64
e 11 67
e 11 71
e 11 73
e 11 79
e 12 17
e 12 19
e 12 20
e 12 42
e 12 47
e 12 70
e 12 72
e 12 77
e 12 80
e 13 24
e 13 28
e 13 32
e 13 33
e 13 34
e 13 36
e 13 41
e 13 46
e 13 49
e 13 50
e 13 55
e 13 70
e 13 76
e 13 78
e 13 79
e 13 80
e 14 18
e 14 19
e 14 21
e 14 23
e 14 32
e 14 34
e 14 37
e 14 47
e 14 50
e 14 58
e 14 59
e 14 61
e 14 63
e 14 64
e 14 66
e 14 68
e 14 69
e 14 72
e 14 74
e 15 26
e 15 31
e 15 32
e 15 37
e 15 41
e 15 44
e 15 46
e 15 54
e 15 61
e 15 67
e 15 74
e 16 17
e 16 18
e 16 28
e 16 29
e 16 32
e 16 35
e 16 47
e 16 48
e 16 49
e 16 54
e 16 56
e 16 64
e 16 77
e 17 21
e 17 23
e 17 31
e 17 36
e 17 37
e 17 40
e 17 43
e 17 46
e 17 47
e 17 49
e 17 52
e 17 55
e 17 64
e 17 65
e 17 77
e 17 78
e 17 79
e 18 25
e 18 31
e 18 32
e 18 33
e 18 35
e 18 41
e 18 43
e 18 44
e 18 45
e 18 52
e 18 63
e 18 70
e 19 22
e 19 27
e 19 28
e 19 35
e 19 37
e 19 40
e 19 46
e 19 47
e 19 51
e 19 57
e 19 60
e 19 65
e 19 66
e 19 72
e 19 75
e 19 78
e 20 28
e 20 37
e 20 47
e 20 50
e 20 54
e 20 55
e 20 67
e 20 71
e 20 77
e 21 22
e 21 24
e 21 35
e 21 46
e 21 55
e 21 59
e 21 60
e 21 61
e 21 64
e 21 70
e 21 75
e 22 27
e 22 31
e 22 34
e 22 36
e 22 37
e 22 41
e 22 55
e 22 70
e 22 78
e 22 80
e 23 30
e 23 37
e 23 38
e 23 40
e 23 44
e 23 48
e 23 51
e 23 54
e 23 57
e 23 61
e 24 25
e 24 26
e 24 36
e 24 39
e 24 49
e 24 52
e 24 55
e 24 59
e 24 61
e 24 75
e 25 33
e 25 34
e 25 44
e 25 45
e 25 47
e 25 48
e 25 53
e 25 54
e 25 57
e 25 63
e 25 65
e 25 68
e 25 69
e 25 72
e 25 77
e 25 79
e 25 80
e 26 29
e 26 38
e 26 39
e 26 42
e 26 46
e 26 49
e 26 52
e 26 53
e 26 55
e 26 58
e 26 60
e 26 74
e 26 78
e 26 79
e 27 29
e 27 36
e 27 39
e 27 45
e 27 49
e 27 53
e 27 57
e 27 58
e 27 61
e 27 63
e 27 66
e 27 68
e 27 74
e 27 80
e 28 34
e 28 36
e 28 39
e 28 42
e 28 45
e 28 46
e 28 47
e 28 49
e 28 55
e 28 61
e 28 65
e 28 67
e 28 69
e 28 73
e 28 79
e 28 80
e 29 33
e 29 44
e 29 58
e 29 80
e 30 42
e 30 44
e 30 52
e 30 57
e 30 62
e 30 65
e 30 66
e 30 71
e 30 73
e 30 76
e 31 34
e 31 42
e 31 46
e 31 58
e 31 64
e 31 70
e 32 54
e 32 58
e 32 61
e 32 62
e 32 68
e 32 72
e 32 76
e 32 77
e 33 36
e 33 48
e 33 49
e 33 65
e 33 70
e 33 72
e 33 75
e 33 79
e 34 37
e 34 40
e 34 41
e 34 46
e 34 51
e 34 53
e 34 61
e 34 64
e 34 68
e 34 72
e 35 37
e 35 40
e 35 44
e 35 48
e 35 51
e 35 62
e 35 63
e 35 67
e 35 68
e 35 72
e 35 73
e 35 75
e 35 76
e 35 77
e 35 79
e 36 43
e 36 46
e 36 47
e 36 50
e 36 59
e 36 77
e 36 78
e 37 41
e 37 54
e 37 55
e 37 56
e 38 47
e 38 50
e 38 55
e 38 57
e 38 59
e 38 62
e 38 75
e 38 78
e 39 42
e 39 46
e 39 49
e 39 51
e 39 55
e 39 56
e 39 63
e 39 65
e 39 66
e 39 67
e 39 69
e 39 72
e 39 75
e 40 45
e 40 48
e 40 54
e 40 56
e 40 62
e 40 66
e 41 45
e 41 46
e 41 52
e 41 58
e 41 61
e 41 73
e 41 79
e 42 45
e 42 53
e 42 57
e 42 58
e 42 73
e 42 76
e 43 46
e 43 54
e 43 57
e 43 59
e 43 62
e 43 67
e 43 74
e 44 49
e 44 53
e 44 69
e 44 76
e 44 77
e 44 79
e 45 48
e 45 52
e 45 63
e 45 64
e 45 68
e 45 70
e 45 71
e 45 76
e 45 77
e 46 56
e 46 57
e 46 60
e 46 64
e 46 80
e 47 56
e 47 57
e 47 59
e 47 62
e 47 68
e 47 75
e 47 76
e 47 79
e 47 80
e 48 51
e 48 57
e 48 62
e 48 65
e 48 69
e 48 78
e 49 64
e 49 74
e 50 62
e 50 63
e 50 68
e 50 74
e 50 79
e 51 54
e 51 60
e 51 64
e 51 68
e 51 79
e 52 53
e 52 57
e 52 69
e 52 73
e 52 77
e 53 54
e 53 57
e 53 60
e 53 72
e 53 79
e 54 65
e 54 66
e 54 69
e 54 71
e 54 72
e 54 77
e 55 58
e 55 68
e 55 74
e 55 77
e 56 67
e 56 68
e 56 79
e 57 59
e 57 60
e 57 66
e 57 72
e 57 79
e 58 68
e 58 71
e 58 75
e 59 60
e 59 61
e 59 63
e 60 80
e 61 63
e 61 68
e 61 75
e 61 76
e 62 71
e 62 73
e 62 74
e 62 75
e 62 79
e 63 67
e 63 78
e 63 79
e 64 66
e 64 72
e 64 73
e 64 75
e 64 80
e 65 68
e 65 78
e 66 69
e 66 71
e 66 74
e 66 80
e 67 69
e 68 69
e 68 73
e 68 79
e 69 77
e 69 78
e 70 72
e 71 74
e 71 77
e 71 79
e 72 80
e 73 77
e 74 80
e 75 77
e 76 79
